c *********************************
c * Circuit generated by BenCGen
c *
c * Parity_350
c *
c * Ports with 1 gate(s): 1
c * Ports with 2 gate(s): 350
c * Total gates: 351
c *********************************
p cnf 701 1401
1 353 0
-1 -353 0
1 -352 0
353 -352 0
-1 -353 352 0
1 2 -354 0
-1 2 354 0
1 -2 354 0
-1 -2 -354 0
3 4 -355 0
-3 4 355 0
3 -4 355 0
-3 -4 -355 0
5 6 -356 0
-5 6 356 0
5 -6 356 0
-5 -6 -356 0
7 8 -357 0
-7 8 357 0
7 -8 357 0
-7 -8 -357 0
9 10 -358 0
-9 10 358 0
9 -10 358 0
-9 -10 -358 0
11 12 -359 0
-11 12 359 0
11 -12 359 0
-11 -12 -359 0
13 14 -360 0
-13 14 360 0
13 -14 360 0
-13 -14 -360 0
15 16 -361 0
-15 16 361 0
15 -16 361 0
-15 -16 -361 0
17 18 -362 0
-17 18 362 0
17 -18 362 0
-17 -18 -362 0
19 20 -363 0
-19 20 363 0
19 -20 363 0
-19 -20 -363 0
21 22 -364 0
-21 22 364 0
21 -22 364 0
-21 -22 -364 0
23 24 -365 0
-23 24 365 0
23 -24 365 0
-23 -24 -365 0
25 26 -366 0
-25 26 366 0
25 -26 366 0
-25 -26 -366 0
27 28 -367 0
-27 28 367 0
27 -28 367 0
-27 -28 -367 0
29 30 -368 0
-29 30 368 0
29 -30 368 0
-29 -30 -368 0
31 32 -369 0
-31 32 369 0
31 -32 369 0
-31 -32 -369 0
33 34 -370 0
-33 34 370 0
33 -34 370 0
-33 -34 -370 0
35 36 -371 0
-35 36 371 0
35 -36 371 0
-35 -36 -371 0
37 38 -372 0
-37 38 372 0
37 -38 372 0
-37 -38 -372 0
39 40 -373 0
-39 40 373 0
39 -40 373 0
-39 -40 -373 0
41 42 -374 0
-41 42 374 0
41 -42 374 0
-41 -42 -374 0
43 44 -375 0
-43 44 375 0
43 -44 375 0
-43 -44 -375 0
45 46 -376 0
-45 46 376 0
45 -46 376 0
-45 -46 -376 0
47 48 -377 0
-47 48 377 0
47 -48 377 0
-47 -48 -377 0
49 50 -378 0
-49 50 378 0
49 -50 378 0
-49 -50 -378 0
51 52 -379 0
-51 52 379 0
51 -52 379 0
-51 -52 -379 0
53 54 -380 0
-53 54 380 0
53 -54 380 0
-53 -54 -380 0
55 56 -381 0
-55 56 381 0
55 -56 381 0
-55 -56 -381 0
57 58 -382 0
-57 58 382 0
57 -58 382 0
-57 -58 -382 0
59 60 -383 0
-59 60 383 0
59 -60 383 0
-59 -60 -383 0
61 62 -384 0
-61 62 384 0
61 -62 384 0
-61 -62 -384 0
63 64 -385 0
-63 64 385 0
63 -64 385 0
-63 -64 -385 0
65 66 -386 0
-65 66 386 0
65 -66 386 0
-65 -66 -386 0
67 68 -387 0
-67 68 387 0
67 -68 387 0
-67 -68 -387 0
69 70 -388 0
-69 70 388 0
69 -70 388 0
-69 -70 -388 0
71 72 -389 0
-71 72 389 0
71 -72 389 0
-71 -72 -389 0
73 74 -390 0
-73 74 390 0
73 -74 390 0
-73 -74 -390 0
75 76 -391 0
-75 76 391 0
75 -76 391 0
-75 -76 -391 0
77 78 -392 0
-77 78 392 0
77 -78 392 0
-77 -78 -392 0
79 80 -393 0
-79 80 393 0
79 -80 393 0
-79 -80 -393 0
81 82 -394 0
-81 82 394 0
81 -82 394 0
-81 -82 -394 0
83 84 -395 0
-83 84 395 0
83 -84 395 0
-83 -84 -395 0
85 86 -396 0
-85 86 396 0
85 -86 396 0
-85 -86 -396 0
87 88 -397 0
-87 88 397 0
87 -88 397 0
-87 -88 -397 0
89 90 -398 0
-89 90 398 0
89 -90 398 0
-89 -90 -398 0
91 92 -399 0
-91 92 399 0
91 -92 399 0
-91 -92 -399 0
93 94 -400 0
-93 94 400 0
93 -94 400 0
-93 -94 -400 0
95 96 -401 0
-95 96 401 0
95 -96 401 0
-95 -96 -401 0
97 98 -402 0
-97 98 402 0
97 -98 402 0
-97 -98 -402 0
99 100 -403 0
-99 100 403 0
99 -100 403 0
-99 -100 -403 0
101 102 -404 0
-101 102 404 0
101 -102 404 0
-101 -102 -404 0
103 104 -405 0
-103 104 405 0
103 -104 405 0
-103 -104 -405 0
105 106 -406 0
-105 106 406 0
105 -106 406 0
-105 -106 -406 0
107 108 -407 0
-107 108 407 0
107 -108 407 0
-107 -108 -407 0
109 110 -408 0
-109 110 408 0
109 -110 408 0
-109 -110 -408 0
111 112 -409 0
-111 112 409 0
111 -112 409 0
-111 -112 -409 0
113 114 -410 0
-113 114 410 0
113 -114 410 0
-113 -114 -410 0
115 116 -411 0
-115 116 411 0
115 -116 411 0
-115 -116 -411 0
117 118 -412 0
-117 118 412 0
117 -118 412 0
-117 -118 -412 0
119 120 -413 0
-119 120 413 0
119 -120 413 0
-119 -120 -413 0
121 122 -414 0
-121 122 414 0
121 -122 414 0
-121 -122 -414 0
123 124 -415 0
-123 124 415 0
123 -124 415 0
-123 -124 -415 0
125 126 -416 0
-125 126 416 0
125 -126 416 0
-125 -126 -416 0
127 128 -417 0
-127 128 417 0
127 -128 417 0
-127 -128 -417 0
129 130 -418 0
-129 130 418 0
129 -130 418 0
-129 -130 -418 0
131 132 -419 0
-131 132 419 0
131 -132 419 0
-131 -132 -419 0
133 134 -420 0
-133 134 420 0
133 -134 420 0
-133 -134 -420 0
135 136 -421 0
-135 136 421 0
135 -136 421 0
-135 -136 -421 0
137 138 -422 0
-137 138 422 0
137 -138 422 0
-137 -138 -422 0
139 140 -423 0
-139 140 423 0
139 -140 423 0
-139 -140 -423 0
141 142 -424 0
-141 142 424 0
141 -142 424 0
-141 -142 -424 0
143 144 -425 0
-143 144 425 0
143 -144 425 0
-143 -144 -425 0
145 146 -426 0
-145 146 426 0
145 -146 426 0
-145 -146 -426 0
147 148 -427 0
-147 148 427 0
147 -148 427 0
-147 -148 -427 0
149 150 -428 0
-149 150 428 0
149 -150 428 0
-149 -150 -428 0
151 152 -429 0
-151 152 429 0
151 -152 429 0
-151 -152 -429 0
153 154 -430 0
-153 154 430 0
153 -154 430 0
-153 -154 -430 0
155 156 -431 0
-155 156 431 0
155 -156 431 0
-155 -156 -431 0
157 158 -432 0
-157 158 432 0
157 -158 432 0
-157 -158 -432 0
159 160 -433 0
-159 160 433 0
159 -160 433 0
-159 -160 -433 0
161 162 -434 0
-161 162 434 0
161 -162 434 0
-161 -162 -434 0
163 164 -435 0
-163 164 435 0
163 -164 435 0
-163 -164 -435 0
165 166 -436 0
-165 166 436 0
165 -166 436 0
-165 -166 -436 0
167 168 -437 0
-167 168 437 0
167 -168 437 0
-167 -168 -437 0
169 170 -438 0
-169 170 438 0
169 -170 438 0
-169 -170 -438 0
171 172 -439 0
-171 172 439 0
171 -172 439 0
-171 -172 -439 0
173 174 -440 0
-173 174 440 0
173 -174 440 0
-173 -174 -440 0
175 176 -441 0
-175 176 441 0
175 -176 441 0
-175 -176 -441 0
177 178 -442 0
-177 178 442 0
177 -178 442 0
-177 -178 -442 0
179 180 -443 0
-179 180 443 0
179 -180 443 0
-179 -180 -443 0
181 182 -444 0
-181 182 444 0
181 -182 444 0
-181 -182 -444 0
183 184 -445 0
-183 184 445 0
183 -184 445 0
-183 -184 -445 0
185 186 -446 0
-185 186 446 0
185 -186 446 0
-185 -186 -446 0
187 188 -447 0
-187 188 447 0
187 -188 447 0
-187 -188 -447 0
189 190 -448 0
-189 190 448 0
189 -190 448 0
-189 -190 -448 0
191 192 -449 0
-191 192 449 0
191 -192 449 0
-191 -192 -449 0
193 194 -450 0
-193 194 450 0
193 -194 450 0
-193 -194 -450 0
195 196 -451 0
-195 196 451 0
195 -196 451 0
-195 -196 -451 0
197 198 -452 0
-197 198 452 0
197 -198 452 0
-197 -198 -452 0
199 200 -453 0
-199 200 453 0
199 -200 453 0
-199 -200 -453 0
201 202 -454 0
-201 202 454 0
201 -202 454 0
-201 -202 -454 0
203 204 -455 0
-203 204 455 0
203 -204 455 0
-203 -204 -455 0
205 206 -456 0
-205 206 456 0
205 -206 456 0
-205 -206 -456 0
207 208 -457 0
-207 208 457 0
207 -208 457 0
-207 -208 -457 0
209 210 -458 0
-209 210 458 0
209 -210 458 0
-209 -210 -458 0
211 212 -459 0
-211 212 459 0
211 -212 459 0
-211 -212 -459 0
213 214 -460 0
-213 214 460 0
213 -214 460 0
-213 -214 -460 0
215 216 -461 0
-215 216 461 0
215 -216 461 0
-215 -216 -461 0
217 218 -462 0
-217 218 462 0
217 -218 462 0
-217 -218 -462 0
219 220 -463 0
-219 220 463 0
219 -220 463 0
-219 -220 -463 0
221 222 -464 0
-221 222 464 0
221 -222 464 0
-221 -222 -464 0
223 224 -465 0
-223 224 465 0
223 -224 465 0
-223 -224 -465 0
225 226 -466 0
-225 226 466 0
225 -226 466 0
-225 -226 -466 0
227 228 -467 0
-227 228 467 0
227 -228 467 0
-227 -228 -467 0
229 230 -468 0
-229 230 468 0
229 -230 468 0
-229 -230 -468 0
231 232 -469 0
-231 232 469 0
231 -232 469 0
-231 -232 -469 0
233 234 -470 0
-233 234 470 0
233 -234 470 0
-233 -234 -470 0
235 236 -471 0
-235 236 471 0
235 -236 471 0
-235 -236 -471 0
237 238 -472 0
-237 238 472 0
237 -238 472 0
-237 -238 -472 0
239 240 -473 0
-239 240 473 0
239 -240 473 0
-239 -240 -473 0
241 242 -474 0
-241 242 474 0
241 -242 474 0
-241 -242 -474 0
243 244 -475 0
-243 244 475 0
243 -244 475 0
-243 -244 -475 0
245 246 -476 0
-245 246 476 0
245 -246 476 0
-245 -246 -476 0
247 248 -477 0
-247 248 477 0
247 -248 477 0
-247 -248 -477 0
249 250 -478 0
-249 250 478 0
249 -250 478 0
-249 -250 -478 0
251 252 -479 0
-251 252 479 0
251 -252 479 0
-251 -252 -479 0
253 254 -480 0
-253 254 480 0
253 -254 480 0
-253 -254 -480 0
255 256 -481 0
-255 256 481 0
255 -256 481 0
-255 -256 -481 0
257 258 -482 0
-257 258 482 0
257 -258 482 0
-257 -258 -482 0
259 260 -483 0
-259 260 483 0
259 -260 483 0
-259 -260 -483 0
261 262 -484 0
-261 262 484 0
261 -262 484 0
-261 -262 -484 0
263 264 -485 0
-263 264 485 0
263 -264 485 0
-263 -264 -485 0
265 266 -486 0
-265 266 486 0
265 -266 486 0
-265 -266 -486 0
267 268 -487 0
-267 268 487 0
267 -268 487 0
-267 -268 -487 0
269 270 -488 0
-269 270 488 0
269 -270 488 0
-269 -270 -488 0
271 272 -489 0
-271 272 489 0
271 -272 489 0
-271 -272 -489 0
273 274 -490 0
-273 274 490 0
273 -274 490 0
-273 -274 -490 0
275 276 -491 0
-275 276 491 0
275 -276 491 0
-275 -276 -491 0
277 278 -492 0
-277 278 492 0
277 -278 492 0
-277 -278 -492 0
279 280 -493 0
-279 280 493 0
279 -280 493 0
-279 -280 -493 0
281 282 -494 0
-281 282 494 0
281 -282 494 0
-281 -282 -494 0
283 284 -495 0
-283 284 495 0
283 -284 495 0
-283 -284 -495 0
285 286 -496 0
-285 286 496 0
285 -286 496 0
-285 -286 -496 0
287 288 -497 0
-287 288 497 0
287 -288 497 0
-287 -288 -497 0
289 290 -498 0
-289 290 498 0
289 -290 498 0
-289 -290 -498 0
291 292 -499 0
-291 292 499 0
291 -292 499 0
-291 -292 -499 0
293 294 -500 0
-293 294 500 0
293 -294 500 0
-293 -294 -500 0
295 296 -501 0
-295 296 501 0
295 -296 501 0
-295 -296 -501 0
297 298 -502 0
-297 298 502 0
297 -298 502 0
-297 -298 -502 0
299 300 -503 0
-299 300 503 0
299 -300 503 0
-299 -300 -503 0
301 302 -504 0
-301 302 504 0
301 -302 504 0
-301 -302 -504 0
303 304 -505 0
-303 304 505 0
303 -304 505 0
-303 -304 -505 0
305 306 -506 0
-305 306 506 0
305 -306 506 0
-305 -306 -506 0
307 308 -507 0
-307 308 507 0
307 -308 507 0
-307 -308 -507 0
309 310 -508 0
-309 310 508 0
309 -310 508 0
-309 -310 -508 0
311 312 -509 0
-311 312 509 0
311 -312 509 0
-311 -312 -509 0
313 314 -510 0
-313 314 510 0
313 -314 510 0
-313 -314 -510 0
315 316 -511 0
-315 316 511 0
315 -316 511 0
-315 -316 -511 0
317 318 -512 0
-317 318 512 0
317 -318 512 0
-317 -318 -512 0
319 320 -513 0
-319 320 513 0
319 -320 513 0
-319 -320 -513 0
321 322 -514 0
-321 322 514 0
321 -322 514 0
-321 -322 -514 0
323 324 -515 0
-323 324 515 0
323 -324 515 0
-323 -324 -515 0
325 326 -516 0
-325 326 516 0
325 -326 516 0
-325 -326 -516 0
327 328 -517 0
-327 328 517 0
327 -328 517 0
-327 -328 -517 0
329 330 -518 0
-329 330 518 0
329 -330 518 0
-329 -330 -518 0
331 332 -519 0
-331 332 519 0
331 -332 519 0
-331 -332 -519 0
333 334 -520 0
-333 334 520 0
333 -334 520 0
-333 -334 -520 0
335 336 -521 0
-335 336 521 0
335 -336 521 0
-335 -336 -521 0
337 338 -522 0
-337 338 522 0
337 -338 522 0
-337 -338 -522 0
339 340 -523 0
-339 340 523 0
339 -340 523 0
-339 -340 -523 0
341 342 -524 0
-341 342 524 0
341 -342 524 0
-341 -342 -524 0
343 344 -525 0
-343 344 525 0
343 -344 525 0
-343 -344 -525 0
345 346 -526 0
-345 346 526 0
345 -346 526 0
-345 -346 -526 0
347 348 -527 0
-347 348 527 0
347 -348 527 0
-347 -348 -527 0
349 350 -528 0
-349 350 528 0
349 -350 528 0
-349 -350 -528 0
354 355 -529 0
-354 355 529 0
354 -355 529 0
-354 -355 -529 0
356 357 -530 0
-356 357 530 0
356 -357 530 0
-356 -357 -530 0
358 359 -531 0
-358 359 531 0
358 -359 531 0
-358 -359 -531 0
360 361 -532 0
-360 361 532 0
360 -361 532 0
-360 -361 -532 0
362 363 -533 0
-362 363 533 0
362 -363 533 0
-362 -363 -533 0
364 365 -534 0
-364 365 534 0
364 -365 534 0
-364 -365 -534 0
366 367 -535 0
-366 367 535 0
366 -367 535 0
-366 -367 -535 0
368 369 -536 0
-368 369 536 0
368 -369 536 0
-368 -369 -536 0
370 371 -537 0
-370 371 537 0
370 -371 537 0
-370 -371 -537 0
372 373 -538 0
-372 373 538 0
372 -373 538 0
-372 -373 -538 0
374 375 -539 0
-374 375 539 0
374 -375 539 0
-374 -375 -539 0
376 377 -540 0
-376 377 540 0
376 -377 540 0
-376 -377 -540 0
378 379 -541 0
-378 379 541 0
378 -379 541 0
-378 -379 -541 0
380 381 -542 0
-380 381 542 0
380 -381 542 0
-380 -381 -542 0
382 383 -543 0
-382 383 543 0
382 -383 543 0
-382 -383 -543 0
384 385 -544 0
-384 385 544 0
384 -385 544 0
-384 -385 -544 0
386 387 -545 0
-386 387 545 0
386 -387 545 0
-386 -387 -545 0
388 389 -546 0
-388 389 546 0
388 -389 546 0
-388 -389 -546 0
390 391 -547 0
-390 391 547 0
390 -391 547 0
-390 -391 -547 0
392 393 -548 0
-392 393 548 0
392 -393 548 0
-392 -393 -548 0
394 395 -549 0
-394 395 549 0
394 -395 549 0
-394 -395 -549 0
396 397 -550 0
-396 397 550 0
396 -397 550 0
-396 -397 -550 0
398 399 -551 0
-398 399 551 0
398 -399 551 0
-398 -399 -551 0
400 401 -552 0
-400 401 552 0
400 -401 552 0
-400 -401 -552 0
402 403 -553 0
-402 403 553 0
402 -403 553 0
-402 -403 -553 0
404 405 -554 0
-404 405 554 0
404 -405 554 0
-404 -405 -554 0
406 407 -555 0
-406 407 555 0
406 -407 555 0
-406 -407 -555 0
408 409 -556 0
-408 409 556 0
408 -409 556 0
-408 -409 -556 0
410 411 -557 0
-410 411 557 0
410 -411 557 0
-410 -411 -557 0
412 413 -558 0
-412 413 558 0
412 -413 558 0
-412 -413 -558 0
414 415 -559 0
-414 415 559 0
414 -415 559 0
-414 -415 -559 0
416 417 -560 0
-416 417 560 0
416 -417 560 0
-416 -417 -560 0
418 419 -561 0
-418 419 561 0
418 -419 561 0
-418 -419 -561 0
420 421 -562 0
-420 421 562 0
420 -421 562 0
-420 -421 -562 0
422 423 -563 0
-422 423 563 0
422 -423 563 0
-422 -423 -563 0
424 425 -564 0
-424 425 564 0
424 -425 564 0
-424 -425 -564 0
426 427 -565 0
-426 427 565 0
426 -427 565 0
-426 -427 -565 0
428 429 -566 0
-428 429 566 0
428 -429 566 0
-428 -429 -566 0
430 431 -567 0
-430 431 567 0
430 -431 567 0
-430 -431 -567 0
432 433 -568 0
-432 433 568 0
432 -433 568 0
-432 -433 -568 0
434 435 -569 0
-434 435 569 0
434 -435 569 0
-434 -435 -569 0
436 437 -570 0
-436 437 570 0
436 -437 570 0
-436 -437 -570 0
438 439 -571 0
-438 439 571 0
438 -439 571 0
-438 -439 -571 0
440 441 -572 0
-440 441 572 0
440 -441 572 0
-440 -441 -572 0
442 443 -573 0
-442 443 573 0
442 -443 573 0
-442 -443 -573 0
444 445 -574 0
-444 445 574 0
444 -445 574 0
-444 -445 -574 0
446 447 -575 0
-446 447 575 0
446 -447 575 0
-446 -447 -575 0
448 449 -576 0
-448 449 576 0
448 -449 576 0
-448 -449 -576 0
450 451 -577 0
-450 451 577 0
450 -451 577 0
-450 -451 -577 0
452 453 -578 0
-452 453 578 0
452 -453 578 0
-452 -453 -578 0
454 455 -579 0
-454 455 579 0
454 -455 579 0
-454 -455 -579 0
456 457 -580 0
-456 457 580 0
456 -457 580 0
-456 -457 -580 0
458 459 -581 0
-458 459 581 0
458 -459 581 0
-458 -459 -581 0
460 461 -582 0
-460 461 582 0
460 -461 582 0
-460 -461 -582 0
462 463 -583 0
-462 463 583 0
462 -463 583 0
-462 -463 -583 0
464 465 -584 0
-464 465 584 0
464 -465 584 0
-464 -465 -584 0
466 467 -585 0
-466 467 585 0
466 -467 585 0
-466 -467 -585 0
468 469 -586 0
-468 469 586 0
468 -469 586 0
-468 -469 -586 0
470 471 -587 0
-470 471 587 0
470 -471 587 0
-470 -471 -587 0
472 473 -588 0
-472 473 588 0
472 -473 588 0
-472 -473 -588 0
474 475 -589 0
-474 475 589 0
474 -475 589 0
-474 -475 -589 0
476 477 -590 0
-476 477 590 0
476 -477 590 0
-476 -477 -590 0
478 479 -591 0
-478 479 591 0
478 -479 591 0
-478 -479 -591 0
480 481 -592 0
-480 481 592 0
480 -481 592 0
-480 -481 -592 0
482 483 -593 0
-482 483 593 0
482 -483 593 0
-482 -483 -593 0
484 485 -594 0
-484 485 594 0
484 -485 594 0
-484 -485 -594 0
486 487 -595 0
-486 487 595 0
486 -487 595 0
-486 -487 -595 0
488 489 -596 0
-488 489 596 0
488 -489 596 0
-488 -489 -596 0
490 491 -597 0
-490 491 597 0
490 -491 597 0
-490 -491 -597 0
492 493 -598 0
-492 493 598 0
492 -493 598 0
-492 -493 -598 0
494 495 -599 0
-494 495 599 0
494 -495 599 0
-494 -495 -599 0
496 497 -600 0
-496 497 600 0
496 -497 600 0
-496 -497 -600 0
498 499 -601 0
-498 499 601 0
498 -499 601 0
-498 -499 -601 0
500 501 -602 0
-500 501 602 0
500 -501 602 0
-500 -501 -602 0
502 503 -603 0
-502 503 603 0
502 -503 603 0
-502 -503 -603 0
504 505 -604 0
-504 505 604 0
504 -505 604 0
-504 -505 -604 0
506 507 -605 0
-506 507 605 0
506 -507 605 0
-506 -507 -605 0
508 509 -606 0
-508 509 606 0
508 -509 606 0
-508 -509 -606 0
510 511 -607 0
-510 511 607 0
510 -511 607 0
-510 -511 -607 0
512 513 -608 0
-512 513 608 0
512 -513 608 0
-512 -513 -608 0
514 515 -609 0
-514 515 609 0
514 -515 609 0
-514 -515 -609 0
516 517 -610 0
-516 517 610 0
516 -517 610 0
-516 -517 -610 0
518 519 -611 0
-518 519 611 0
518 -519 611 0
-518 -519 -611 0
520 521 -612 0
-520 521 612 0
520 -521 612 0
-520 -521 -612 0
522 523 -613 0
-522 523 613 0
522 -523 613 0
-522 -523 -613 0
524 525 -614 0
-524 525 614 0
524 -525 614 0
-524 -525 -614 0
526 527 -615 0
-526 527 615 0
526 -527 615 0
-526 -527 -615 0
529 530 -616 0
-529 530 616 0
529 -530 616 0
-529 -530 -616 0
531 532 -617 0
-531 532 617 0
531 -532 617 0
-531 -532 -617 0
533 534 -618 0
-533 534 618 0
533 -534 618 0
-533 -534 -618 0
535 536 -619 0
-535 536 619 0
535 -536 619 0
-535 -536 -619 0
537 538 -620 0
-537 538 620 0
537 -538 620 0
-537 -538 -620 0
539 540 -621 0
-539 540 621 0
539 -540 621 0
-539 -540 -621 0
541 542 -622 0
-541 542 622 0
541 -542 622 0
-541 -542 -622 0
543 544 -623 0
-543 544 623 0
543 -544 623 0
-543 -544 -623 0
545 546 -624 0
-545 546 624 0
545 -546 624 0
-545 -546 -624 0
547 548 -625 0
-547 548 625 0
547 -548 625 0
-547 -548 -625 0
549 550 -626 0
-549 550 626 0
549 -550 626 0
-549 -550 -626 0
551 552 -627 0
-551 552 627 0
551 -552 627 0
-551 -552 -627 0
553 554 -628 0
-553 554 628 0
553 -554 628 0
-553 -554 -628 0
555 556 -629 0
-555 556 629 0
555 -556 629 0
-555 -556 -629 0
557 558 -630 0
-557 558 630 0
557 -558 630 0
-557 -558 -630 0
559 560 -631 0
-559 560 631 0
559 -560 631 0
-559 -560 -631 0
561 562 -632 0
-561 562 632 0
561 -562 632 0
-561 -562 -632 0
563 564 -633 0
-563 564 633 0
563 -564 633 0
-563 -564 -633 0
565 566 -634 0
-565 566 634 0
565 -566 634 0
-565 -566 -634 0
567 568 -635 0
-567 568 635 0
567 -568 635 0
-567 -568 -635 0
569 570 -636 0
-569 570 636 0
569 -570 636 0
-569 -570 -636 0
571 572 -637 0
-571 572 637 0
571 -572 637 0
-571 -572 -637 0
573 574 -638 0
-573 574 638 0
573 -574 638 0
-573 -574 -638 0
575 576 -639 0
-575 576 639 0
575 -576 639 0
-575 -576 -639 0
577 578 -640 0
-577 578 640 0
577 -578 640 0
-577 -578 -640 0
579 580 -641 0
-579 580 641 0
579 -580 641 0
-579 -580 -641 0
581 582 -642 0
-581 582 642 0
581 -582 642 0
-581 -582 -642 0
583 584 -643 0
-583 584 643 0
583 -584 643 0
-583 -584 -643 0
585 586 -644 0
-585 586 644 0
585 -586 644 0
-585 -586 -644 0
587 588 -645 0
-587 588 645 0
587 -588 645 0
-587 -588 -645 0
589 590 -646 0
-589 590 646 0
589 -590 646 0
-589 -590 -646 0
591 592 -647 0
-591 592 647 0
591 -592 647 0
-591 -592 -647 0
593 594 -648 0
-593 594 648 0
593 -594 648 0
-593 -594 -648 0
595 596 -649 0
-595 596 649 0
595 -596 649 0
-595 -596 -649 0
597 598 -650 0
-597 598 650 0
597 -598 650 0
-597 -598 -650 0
599 600 -651 0
-599 600 651 0
599 -600 651 0
-599 -600 -651 0
601 602 -652 0
-601 602 652 0
601 -602 652 0
-601 -602 -652 0
603 604 -653 0
-603 604 653 0
603 -604 653 0
-603 -604 -653 0
605 606 -654 0
-605 606 654 0
605 -606 654 0
-605 -606 -654 0
607 608 -655 0
-607 608 655 0
607 -608 655 0
-607 -608 -655 0
609 610 -656 0
-609 610 656 0
609 -610 656 0
-609 -610 -656 0
611 612 -657 0
-611 612 657 0
611 -612 657 0
-611 -612 -657 0
613 614 -658 0
-613 614 658 0
613 -614 658 0
-613 -614 -658 0
615 528 -659 0
-615 528 659 0
615 -528 659 0
-615 -528 -659 0
616 617 -660 0
-616 617 660 0
616 -617 660 0
-616 -617 -660 0
618 619 -661 0
-618 619 661 0
618 -619 661 0
-618 -619 -661 0
620 621 -662 0
-620 621 662 0
620 -621 662 0
-620 -621 -662 0
622 623 -663 0
-622 623 663 0
622 -623 663 0
-622 -623 -663 0
624 625 -664 0
-624 625 664 0
624 -625 664 0
-624 -625 -664 0
626 627 -665 0
-626 627 665 0
626 -627 665 0
-626 -627 -665 0
628 629 -666 0
-628 629 666 0
628 -629 666 0
-628 -629 -666 0
630 631 -667 0
-630 631 667 0
630 -631 667 0
-630 -631 -667 0
632 633 -668 0
-632 633 668 0
632 -633 668 0
-632 -633 -668 0
634 635 -669 0
-634 635 669 0
634 -635 669 0
-634 -635 -669 0
636 637 -670 0
-636 637 670 0
636 -637 670 0
-636 -637 -670 0
638 639 -671 0
-638 639 671 0
638 -639 671 0
-638 -639 -671 0
640 641 -672 0
-640 641 672 0
640 -641 672 0
-640 -641 -672 0
642 643 -673 0
-642 643 673 0
642 -643 673 0
-642 -643 -673 0
644 645 -674 0
-644 645 674 0
644 -645 674 0
-644 -645 -674 0
646 647 -675 0
-646 647 675 0
646 -647 675 0
-646 -647 -675 0
648 649 -676 0
-648 649 676 0
648 -649 676 0
-648 -649 -676 0
650 651 -677 0
-650 651 677 0
650 -651 677 0
-650 -651 -677 0
652 653 -678 0
-652 653 678 0
652 -653 678 0
-652 -653 -678 0
654 655 -679 0
-654 655 679 0
654 -655 679 0
-654 -655 -679 0
656 657 -680 0
-656 657 680 0
656 -657 680 0
-656 -657 -680 0
658 659 -681 0
-658 659 681 0
658 -659 681 0
-658 -659 -681 0
660 661 -682 0
-660 661 682 0
660 -661 682 0
-660 -661 -682 0
662 663 -683 0
-662 663 683 0
662 -663 683 0
-662 -663 -683 0
664 665 -684 0
-664 665 684 0
664 -665 684 0
-664 -665 -684 0
666 667 -685 0
-666 667 685 0
666 -667 685 0
-666 -667 -685 0
668 669 -686 0
-668 669 686 0
668 -669 686 0
-668 -669 -686 0
670 671 -687 0
-670 671 687 0
670 -671 687 0
-670 -671 -687 0
672 673 -688 0
-672 673 688 0
672 -673 688 0
-672 -673 -688 0
674 675 -689 0
-674 675 689 0
674 -675 689 0
-674 -675 -689 0
676 677 -690 0
-676 677 690 0
676 -677 690 0
-676 -677 -690 0
678 679 -691 0
-678 679 691 0
678 -679 691 0
-678 -679 -691 0
680 681 -692 0
-680 681 692 0
680 -681 692 0
-680 -681 -692 0
682 683 -693 0
-682 683 693 0
682 -683 693 0
-682 -683 -693 0
684 685 -694 0
-684 685 694 0
684 -685 694 0
-684 -685 -694 0
686 687 -695 0
-686 687 695 0
686 -687 695 0
-686 -687 -695 0
688 689 -696 0
-688 689 696 0
688 -689 696 0
-688 -689 -696 0
690 691 -697 0
-690 691 697 0
690 -691 697 0
-690 -691 -697 0
693 694 -698 0
-693 694 698 0
693 -694 698 0
-693 -694 -698 0
695 696 -699 0
-695 696 699 0
695 -696 699 0
-695 -696 -699 0
697 692 -700 0
-697 692 700 0
697 -692 700 0
-697 -692 -700 0
698 699 -701 0
-698 699 701 0
698 -699 701 0
-698 -699 -701 0
701 700 -351 0
-701 700 351 0
701 -700 351 0
-701 -700 -351 0
